
Gurobi 10.0.1 (mac64[arm]) logging started Fri Sep 22 17:15:22 2023

Set parameter LogFile to value "results/scenario_returns/returns_normal/M_j_n_-50/mip_log.txt"
Gurobi Optimizer version 10.0.1 build v10.0.1rc0 (mac64[arm])

CPU model: Apple M1
Thread count: 8 physical cores, 8 logical processors, using up to 8 threads

Optimize a model with 1724 rows, 6293 columns and 24662 nonzeros
Model fingerprint: 0xfe89841f
Model has 8978 general constraints
Variable types: 1 continuous, 6292 integer (408 binary)
Coefficient statistics:
  Matrix range     [6e-02, 3e+05]
  Objective range  [9e-02, 2e+05]
  Bounds range     [1e+00, 2e+07]
  RHS range        [2e+03, 2e+04]
  GenCon rhs range [1e+00, 1e+00]
  GenCon coe range [1e+00, 1e+00]
Presolve removed 114 rows and 546 columns
Presolve time: 0.10s
Presolved: 1610 rows, 5747 columns, 22997 nonzeros
Presolved model has 4 SOS constraint(s)
Variable types: 0 continuous, 5747 integer (34 binary)

Root relaxation: objective 5.490895e+07, 6641 iterations, 0.07 seconds (0.10 work units)

    Nodes    |    Current Node    |     Objective Bounds      |     Work
 Expl Unexpl |  Obj  Depth IntInf | Incumbent    BestBd   Gap | It/Node Time

     0     0 5.4909e+07    0  407          - 5.4909e+07      -     -    0s
     0     0 5.4992e+07    0  852          - 5.4992e+07      -     -    0s
     0     0 5.4996e+07    0  850          - 5.4996e+07      -     -    0s
     0     0 5.5502e+07    0  939          - 5.5502e+07      -     -    0s
     0     0 5.5502e+07    0  939          - 5.5502e+07      -     -    0s
H    0     0                    6.170599e+07 5.5502e+07  10.1%     -    0s
H    0     0                    6.027814e+07 5.5502e+07  7.92%     -    0s
H    0     0                    6.026663e+07 5.5586e+07  7.77%     -    0s
     0     0 5.5659e+07    0  655 6.0267e+07 5.5659e+07  7.65%     -    0s
     0     0 5.5678e+07    0 1074 6.0267e+07 5.5678e+07  7.61%     -    0s
     0     0 5.5696e+07    0 1174 6.0267e+07 5.5696e+07  7.58%     -    0s
     0     0 5.5698e+07    0 1173 6.0267e+07 5.5698e+07  7.58%     -    0s
     0     0 5.5701e+07    0 1190 6.0267e+07 5.5701e+07  7.58%     -    0s
     0     0 5.5735e+07    0 1141 6.0267e+07 5.5735e+07  7.52%     -    0s
     0     0 5.5778e+07    0 1133 6.0267e+07 5.5778e+07  7.45%     -    1s
H    0     0                    6.025904e+07 5.5778e+07  7.44%     -    1s
H    0     0                    5.951404e+07 5.5778e+07  6.28%     -    1s
     0     2 5.5778e+07    0 1133 5.9514e+07 5.5778e+07  6.28%     -    1s
H   36    40                    5.948270e+07 5.5778e+07  6.23%   941    2s
H   38    40                    5.939705e+07 5.5778e+07  6.09%   913    2s
H   39    40                    5.920370e+07 5.5778e+07  5.79%   895    2s
H   67    73                    5.920363e+07 5.5778e+07  5.79%   611    2s
H   69    73                    5.919139e+07 5.5778e+07  5.77%   595    2s
H   74    81                    5.815184e+07 5.5778e+07  4.08%   583    2s
H  376   329                    5.814223e+07 5.5778e+07  4.07%   187    3s
H  381   329                    5.814164e+07 5.5778e+07  4.06%   185    3s
H  956   454                    5.778965e+07 5.5778e+07  3.48%  88.0    3s
H  958   454                    5.774083e+07 5.5778e+07  3.40%  87.9    3s
H 1501   244                    5.772622e+07 5.6049e+07  2.91%   107    5s
  1720   295 5.6461e+07   15  751 5.7726e+07 5.6082e+07  2.85%   133   10s
H 2541   403                    5.772480e+07 5.6358e+07  2.37%   123   11s
* 3683   540              88    5.772480e+07 5.6755e+07  1.68%   127   14s
H 3980   451                    5.772289e+07 5.6821e+07  1.56%   129   14s
H 3982   425                    5.772263e+07 5.6852e+07  1.51%   129   14s
H 3998   425                    5.772263e+07 5.6852e+07  1.51%   129   14s
  4119   369 5.7578e+07   25   84 5.7723e+07 5.6945e+07  1.35%   131   15s
H 4786   474                    5.760997e+07 5.7410e+07  0.35%   136   16s
* 5944   871              67    5.760929e+07 5.7445e+07  0.29%   114   16s
H 6469   925                    5.760927e+07 5.7445e+07  0.29%   107   17s
H 7985   745                    5.760926e+07 5.7525e+07  0.15%  94.9   19s

Cutting planes:
  Gomory: 1
  Cover: 3
  Implied bound: 889
  Projected implied bound: 4
  MIR: 28
  Flow cover: 48
  Inf proof: 2
  Relax-and-lift: 47

Explored 8500 nodes (783085 simplex iterations) in 19.44 seconds (27.96 work units)
Thread count was 8 (of 8 available processors)

Solution count 10: 5.76093e+07 5.76093e+07 5.76093e+07 ... 5.77262e+07

Optimal solution found (tolerance 1.00e-04)
Best objective 5.760925944100e+07, best bound 5.760925723123e+07, gap 0.0000%

Gurobi 10.0.1 (mac64[arm]) logging started Fri Sep 22 17:16:48 2023

Set parameter LogFile to value "results/scenario_returns/returns_normal/M_j_n_-50/mip_log.txt"
Gurobi Optimizer version 10.0.1 build v10.0.1rc0 (mac64[arm])

CPU model: Apple M1
Thread count: 8 physical cores, 8 logical processors, using up to 8 threads

Optimize a model with 1724 rows, 6293 columns and 24662 nonzeros
Model fingerprint: 0xfe89841f
Model has 8978 general constraints
Variable types: 1 continuous, 6292 integer (408 binary)
Coefficient statistics:
  Matrix range     [6e-02, 3e+05]
  Objective range  [9e-02, 2e+05]
  Bounds range     [1e+00, 2e+07]
  RHS range        [2e+03, 2e+04]
  GenCon rhs range [1e+00, 1e+00]
  GenCon coe range [1e+00, 1e+00]
Presolve removed 114 rows and 546 columns
Presolve time: 0.09s
Presolved: 1610 rows, 5747 columns, 22997 nonzeros
Presolved model has 4 SOS constraint(s)
Variable types: 0 continuous, 5747 integer (34 binary)

Root relaxation: objective 5.490895e+07, 6641 iterations, 0.07 seconds (0.10 work units)

    Nodes    |    Current Node    |     Objective Bounds      |     Work
 Expl Unexpl |  Obj  Depth IntInf | Incumbent    BestBd   Gap | It/Node Time

     0     0 5.4909e+07    0  407          - 5.4909e+07      -     -    0s
     0     0 5.4992e+07    0  852          - 5.4992e+07      -     -    0s
     0     0 5.4996e+07    0  850          - 5.4996e+07      -     -    0s
     0     0 5.5502e+07    0  939          - 5.5502e+07      -     -    0s
     0     0 5.5502e+07    0  939          - 5.5502e+07      -     -    0s
H    0     0                    6.170599e+07 5.5502e+07  10.1%     -    0s
H    0     0                    6.027814e+07 5.5502e+07  7.92%     -    0s
H    0     0                    6.026663e+07 5.5586e+07  7.77%     -    0s
     0     0 5.5659e+07    0  655 6.0267e+07 5.5659e+07  7.65%     -    0s
     0     0 5.5678e+07    0 1074 6.0267e+07 5.5678e+07  7.61%     -    0s
     0     0 5.5696e+07    0 1174 6.0267e+07 5.5696e+07  7.58%     -    0s
     0     0 5.5698e+07    0 1173 6.0267e+07 5.5698e+07  7.58%     -    0s
     0     0 5.5701e+07    0 1190 6.0267e+07 5.5701e+07  7.58%     -    0s
     0     0 5.5735e+07    0 1141 6.0267e+07 5.5735e+07  7.52%     -    0s
     0     0 5.5778e+07    0 1133 6.0267e+07 5.5778e+07  7.45%     -    1s
H    0     0                    6.025904e+07 5.5778e+07  7.44%     -    1s
H    0     0                    5.951404e+07 5.5778e+07  6.28%     -    1s
     0     2 5.5778e+07    0 1133 5.9514e+07 5.5778e+07  6.28%     -    1s
H   36    40                    5.948270e+07 5.5778e+07  6.23%   941    2s
H   38    40                    5.939705e+07 5.5778e+07  6.09%   913    2s
H   39    40                    5.920370e+07 5.5778e+07  5.79%   895    2s
H   67    73                    5.920363e+07 5.5778e+07  5.79%   611    2s
H   69    73                    5.919139e+07 5.5778e+07  5.77%   595    2s
H   74    81                    5.815184e+07 5.5778e+07  4.08%   583    2s
H  376   329                    5.814223e+07 5.5778e+07  4.07%   187    3s
H  381   329                    5.814164e+07 5.5778e+07  4.06%   185    3s
H  956   454                    5.778965e+07 5.5778e+07  3.48%  88.0    3s
H  958   454                    5.774083e+07 5.5778e+07  3.40%  87.9    3s
H 1501   244                    5.772622e+07 5.6049e+07  2.91%   107    5s
  1815   298     cutoff   23      5.7726e+07 5.6140e+07  2.75%   135   10s
H 2541   403                    5.772480e+07 5.6358e+07  2.37%   123   11s
* 3683   540              88    5.772480e+07 5.6755e+07  1.68%   127   13s
H 3980   451                    5.772289e+07 5.6821e+07  1.56%   129   14s
H 3982   425                    5.772263e+07 5.6852e+07  1.51%   129   14s
H 3998   425                    5.772263e+07 5.6852e+07  1.51%   129   14s
  4310   301     cutoff   19      5.7723e+07 5.7005e+07  1.24%   133   15s
H 4786   474                    5.760997e+07 5.7410e+07  0.35%   136   15s
* 5944   871              67    5.760929e+07 5.7445e+07  0.29%   114   16s
H 6469   925                    5.760927e+07 5.7445e+07  0.29%   107   16s
H 7985   745                    5.760926e+07 5.7525e+07  0.15%  94.9   18s

Cutting planes:
  Gomory: 1
  Cover: 3
  Implied bound: 889
  Projected implied bound: 4
  MIR: 28
  Flow cover: 48
  Inf proof: 2
  Relax-and-lift: 47

Explored 8500 nodes (783085 simplex iterations) in 19.14 seconds (27.96 work units)
Thread count was 8 (of 8 available processors)

Solution count 10: 5.76093e+07 5.76093e+07 5.76093e+07 ... 5.77262e+07

Optimal solution found (tolerance 1.00e-04)
Best objective 5.760925944100e+07, best bound 5.760925723123e+07, gap 0.0000%

Gurobi 10.0.1 (mac64[arm]) logging started Fri Sep 22 17:21:33 2023

Set parameter LogFile to value "results/scenario_returns/returns_normal/M_j_n_-50/mip_log.txt"
Gurobi Optimizer version 10.0.1 build v10.0.1rc0 (mac64[arm])

CPU model: Apple M1
Thread count: 8 physical cores, 8 logical processors, using up to 8 threads

Optimize a model with 1724 rows, 6293 columns and 24662 nonzeros
Model fingerprint: 0x3f0b5ba2
Model has 8978 general constraints
Variable types: 1 continuous, 6292 integer (408 binary)
Coefficient statistics:
  Matrix range     [6e-02, 3e+05]
  Objective range  [9e-02, 2e+05]
  Bounds range     [1e+00, 2e+07]
  RHS range        [2e+03, 2e+04]
  GenCon rhs range [1e+00, 1e+00]
  GenCon coe range [1e+00, 1e+00]
Presolve removed 124 rows and 556 columns
Presolve time: 0.09s
Presolved: 1600 rows, 5737 columns, 22975 nonzeros
Presolved model has 4 SOS constraint(s)
Variable types: 0 continuous, 5737 integer (34 binary)

Root relaxation: objective 6.030932e+07, 6619 iterations, 0.07 seconds (0.09 work units)

    Nodes    |    Current Node    |     Objective Bounds      |     Work
 Expl Unexpl |  Obj  Depth IntInf | Incumbent    BestBd   Gap | It/Node Time

     0     0 6.0309e+07    0  374          - 6.0309e+07      -     -    0s
     0     0 6.0389e+07    0  857          - 6.0389e+07      -     -    0s
     0     0 6.0393e+07    0  880          - 6.0393e+07      -     -    0s
     0     0 6.0394e+07    0  890          - 6.0394e+07      -     -    0s
     0     0 6.0394e+07    0  884          - 6.0394e+07      -     -    0s
     0     0 6.0394e+07    0  885          - 6.0394e+07      -     -    0s
H    0     0                    6.711485e+07 6.0902e+07  9.26%     -    0s
H    0     0                    6.565777e+07 6.0902e+07  7.24%     -    0s
     0     0 6.1057e+07    0 1117 6.5658e+07 6.1057e+07  7.01%     -    0s
H    0     0                    6.529777e+07 6.1057e+07  6.49%     -    0s
H    0     0                    6.444556e+07 6.1057e+07  5.26%     -    0s
     0     0 6.1097e+07    0 1246 6.4446e+07 6.1097e+07  5.20%     -    0s
     0     0 6.1109e+07    0 1251 6.4446e+07 6.1109e+07  5.18%     -    0s
     0     0 6.1114e+07    0 1272 6.4446e+07 6.1114e+07  5.17%     -    0s
     0     0 6.1114e+07    0 1278 6.4446e+07 6.1114e+07  5.17%     -    0s
H    0     0                    6.300420e+07 6.1177e+07  2.90%     -    1s
     0     0 6.1177e+07    0  896 6.3004e+07 6.1177e+07  2.90%     -    1s
     0     0 6.1193e+07    0  887 6.3004e+07 6.1193e+07  2.87%     -    1s
     0     2 6.1193e+07    0  887 6.3004e+07 6.1193e+07  2.87%     -    1s
  1296   212     cutoff    9      6.3004e+07 6.2029e+07  1.55%   236    5s

Cutting planes:
  Gomory: 4
  Cover: 1
  Implied bound: 1947
  MIR: 57
  Flow path: 1
  Inf proof: 8
  Relax-and-lift: 11

Explored 1997 nodes (462687 simplex iterations) in 6.25 seconds (10.01 work units)
Thread count was 8 (of 8 available processors)

Solution count 5: 6.30042e+07 6.44456e+07 6.52978e+07 ... 6.71148e+07

Optimal solution found (tolerance 1.00e-04)
Best objective 6.300420173000e+07, best bound 6.300420173000e+07, gap 0.0000%

Gurobi 10.0.1 (mac64[arm]) logging started Fri Sep 22 17:50:56 2023

Set parameter LogFile to value "results/scenario_returns/returns_normal/M_j_n_-50/mip_log.txt"
Gurobi Optimizer version 10.0.1 build v10.0.1rc0 (mac64[arm])

CPU model: Apple M1
Thread count: 8 physical cores, 8 logical processors, using up to 8 threads

Optimize a model with 1694 rows, 6293 columns and 24572 nonzeros
Model fingerprint: 0x5126487c
Model has 8978 general constraints
Variable types: 1 continuous, 6292 integer (408 binary)
Coefficient statistics:
  Matrix range     [6e-02, 3e+05]
  Objective range  [9e-02, 2e+05]
  Bounds range     [1e+00, 2e+07]
  RHS range        [2e+03, 2e+04]
  GenCon rhs range [1e+00, 1e+00]
  GenCon coe range [1e+00, 1e+00]
Presolve removed 67 rows and 502 columns
Presolve time: 0.10s
Presolved: 1627 rows, 5791 columns, 23138 nonzeros
Presolved model has 4 SOS constraint(s)
Variable types: 0 continuous, 5791 integer (34 binary)

Root relaxation: objective 5.709271e+07, 6263 iterations, 0.06 seconds (0.09 work units)

    Nodes    |    Current Node    |     Objective Bounds      |     Work
 Expl Unexpl |  Obj  Depth IntInf | Incumbent    BestBd   Gap | It/Node Time

     0     0 5.7093e+07    0  384          - 5.7093e+07      -     -    0s
     0     0 5.7171e+07    0  848          - 5.7171e+07      -     -    0s
     0     0 5.7175e+07    0  854          - 5.7175e+07      -     -    0s
     0     0 5.7175e+07    0  783          - 5.7175e+07      -     -    0s
     0     0 5.7682e+07    0  870          - 5.7682e+07      -     -    0s
     0     0 5.7682e+07    0  746          - 5.7682e+07      -     -    0s
H    0     0                    6.389101e+07 5.7682e+07  9.72%     -    0s
     0     0 5.7798e+07    0  874 6.3891e+07 5.7798e+07  9.54%     -    0s
     0     0 5.7821e+07    0  923 6.3891e+07 5.7821e+07  9.50%     -    0s
     0     0 5.7851e+07    0 1062 6.3891e+07 5.7851e+07  9.45%     -    0s
H    0     0                    5.999365e+07 5.7852e+07  3.57%     -    0s
     0     0 5.7852e+07    0 1076 5.9994e+07 5.7852e+07  3.57%     -    0s
     0     0 5.7855e+07    0 1215 5.9994e+07 5.7855e+07  3.56%     -    0s
     0     0 5.7909e+07    0 1041 5.9994e+07 5.7909e+07  3.47%     -    0s
     0     0 5.7938e+07    0 1032 5.9994e+07 5.7938e+07  3.43%     -    1s
     0     2 5.7938e+07    0 1031 5.9994e+07 5.7938e+07  3.43%     -    1s
H   74    70                    5.978668e+07 5.8096e+07  2.83%   463    2s
  1750    65 5.9423e+07   19   11 5.9787e+07 5.9288e+07  0.83%   177    5s

Cutting planes:
  Gomory: 3
  Cover: 1
  Implied bound: 1561
  MIR: 56
  Flow path: 1
  Inf proof: 17
  Relax-and-lift: 43

Explored 1931 nodes (360030 simplex iterations) in 5.29 seconds (6.07 work units)
Thread count was 8 (of 8 available processors)

Solution count 3: 5.97867e+07 5.99936e+07 6.3891e+07 

Optimal solution found (tolerance 1.00e-04)
Best objective 5.978668207000e+07, best bound 5.978668207000e+07, gap 0.0000%

Gurobi 10.0.1 (mac64[arm]) logging started Fri Sep 22 19:33:39 2023

Set parameter LogFile to value "results/scenario_returns/returns_normal/M_j_n_-50/mip_log.txt"
Gurobi Optimizer version 10.0.1 build v10.0.1rc0 (mac64[arm])

CPU model: Apple M1
Thread count: 8 physical cores, 8 logical processors, using up to 8 threads

Optimize a model with 1694 rows, 6293 columns and 24572 nonzeros
Model fingerprint: 0x9cafd7b8
Model has 8978 general constraints
Variable types: 1 continuous, 6292 integer (408 binary)
Coefficient statistics:
  Matrix range     [6e-02, 3e+05]
  Objective range  [9e-02, 2e+05]
  Bounds range     [1e+00, 2e+07]
  RHS range        [2e+03, 2e+04]
  GenCon rhs range [1e+00, 1e+00]
  GenCon coe range [1e+00, 1e+00]
Presolve removed 67 rows and 502 columns
Presolve time: 0.09s
Presolved: 1627 rows, 5791 columns, 23173 nonzeros
Presolved model has 4 SOS constraint(s)
Variable types: 0 continuous, 5791 integer (34 binary)

Root relaxation: objective 6.140195e+07, 5758 iterations, 0.08 seconds (0.07 work units)

    Nodes    |    Current Node    |     Objective Bounds      |     Work
 Expl Unexpl |  Obj  Depth IntInf | Incumbent    BestBd   Gap | It/Node Time

     0     0 6.1402e+07    0  453          - 6.1402e+07      -     -    0s
H    0     0                    6.774942e+07 6.1538e+07  9.17%     -    0s
     0     0 6.2043e+07    0 1018 6.7749e+07 6.2043e+07  8.42%     -    0s
H    0     0                    6.591735e+07 6.2043e+07  5.88%     -    0s
     0     0 6.2284e+07    0 1029 6.5917e+07 6.2284e+07  5.51%     -    0s
     0     0 6.2310e+07    0  993 6.5917e+07 6.2310e+07  5.47%     -    0s
     0     0 6.2310e+07    0  992 6.5917e+07 6.2310e+07  5.47%     -    0s
H    0     0                    6.462940e+07 6.2368e+07  3.50%     -    0s
     0     0 6.2482e+07    0 1065 6.4629e+07 6.2482e+07  3.32%     -    0s
     0     0 6.2508e+07    0 1236 6.4629e+07 6.2508e+07  3.28%     -    0s
     0     0 6.2512e+07    0 1167 6.4629e+07 6.2512e+07  3.28%     -    0s
     0     0 6.2521e+07    0 1173 6.4629e+07 6.2521e+07  3.26%     -    0s
     0     0 6.2567e+07    0 1286 6.4629e+07 6.2567e+07  3.19%     -    1s
     0     0 6.2588e+07    0 1279 6.4629e+07 6.2588e+07  3.16%     -    1s
     0     2 6.2588e+07    0 1279 6.4629e+07 6.2588e+07  3.16%     -    1s
*   66    61              10    6.324229e+07 6.2588e+07  1.03%   659    2s
H  114    71                    6.310871e+07 6.2588e+07  0.82%   507    3s

Cutting planes:
  Gomory: 6
  Implied bound: 1421
  MIR: 75
  Flow path: 1
  Relax-and-lift: 25

Explored 354 nodes (131715 simplex iterations) in 4.22 seconds (5.50 work units)
Thread count was 8 (of 8 available processors)

Solution count 5: 6.31087e+07 6.32423e+07 6.46294e+07 ... 6.77494e+07

Optimal solution found (tolerance 1.00e-04)
Best objective 6.310870712000e+07, best bound 6.310870712000e+07, gap 0.0000%
Discarded solution information
